NIVEAU_HIERARCHIQUE_P = [| 1,
	| 3,
	| 2,
	| 0,
	| 2,
	| 3,
	| 2,
	| 0,
	| 2,
	| 1,
	| 3,
	| 0,
	| 1,
	| 1,
	| 1|];
	
	
COMP_CLEES_P = [| 1, 6, 7, 6,
	| 7, 7, 9, 1,
	| 3, 2,
	| 5, 6, 9, 8, 7,
	| 5, 5, 6, 5, 5,
	| 2, 9, 5,
	| 0, 6, 2, 4, 1,
	| 10, 6, 10, 0,
	| 5, 4, 5,
	| 3, 3, 1, 10, 2,
	| 10,
	| 10, 9, 1,
	| 5, 7, 7, 7, 0,
	| 4, 10,
	| 1, 9, 4|];
	
AUTRES_COMP_P = [|-1,
	| -1,
	| 3, 0,
	| 3, 7, 10, 2,
	| 4, 10, 8, 0, 8,
	| 4, 0,
	| -1,
	| 7,
	| -1,
	| 1, 0,
	| 1, 6, 2, 0, 4,
	| 10, 5, 7, 5,
	| 4, 1, 8, 5,
	| 5, 1, 9,
	| 10, 6, 10, 4|];
	
NIVEAU_EDUCATION_P = [| 1,
	| 2,
	| 5,
	| 5,
	| 7,
	| 5,
	| 5,
	| 3,
	| 0,
	| 5,
	| 2,
	| 7,
	| 4,
	| 4,
	|3|];
	
TITRE_PROFESSIONNEL_P = [| 0,
	| 0,
	| 0,
	| 1,
	| 5,
	| 0,
	| 0,
	| 0,
	| 0,
	| 0,
	| 0,
	| 0,
	| 4,
	| 0,
	|3|];
	
NIVEAU_FR_P = [| 2,
	| 1,
	| 0,
	| 1,
	| 4,
	| 4,
	| 4,
	| 4,
	| 2,
	| 1,
	| 3,
	| 3,
	| 4,
	| 0,
	|3|];
	
NIVEAU_EN_P = [| 2,
	| 3,
	| 2,
	| 4,
	| 3,
	| 1,
	| 4,
	| 1,
	| 3,
	| 2,
	| 2,
	| 4,
	| 0,
	| 0,
	|4|];
	
AUTRES_LANGUES_P = [| -1,
	| -1,
	| 1,
	| 3,
	| ,
	| 8,
	| 4,
	| 1,
	| 0,
	| ,
	| 7,
	| 0,
	| 9,
	| 4,
	| -1|];